NAME : OMNETRUN
COMMENT : 524.61
TYPE : CVRP
DIMENSION : 21
EDGE_WEIGHT_TYPE : EUC_2D
CAPACITY : 21
NODE_COORD_SECTION
1 0.107093 -0.77924
2 245.683 -342.35
3 55.6358 -1469.28
4 96.2369 -2112.93
5 150.038 -2977.88
6 64.3618 -3405.61
7 106.769 -3859.24
8 21.3565 -4890.17
9 202.56 -5343.08
10 313.419 -827.855
11 450.116 -1401.38
12 443.548 -1961.66
13 381.226 -2455.05
14 444.334 -4884.11
15 426.597 -5931.51
16 570.716 -185.568
17 635.724 -1031.15
18 595.823 -3411.94
19 544.776 -4321.97
20 662.635 -5363.49
21 812.142 -447.541
DEMAND_SECTION
1 0
2 1
3 1
4 1
5 1
6 1
7 1
8 1
9 1
10 1
11 1
12 1
13 1
14 1
15 1
16 1
17 1
18 1
19 1
20 1
21 1
DEPOT_SECTION
1
-1
EOF
